Maximize
 obj: 0 X1
Subject To
 c1:
  + 1 X187 + 1 X82 + 1 X100 + 1 X53 + 1 X152 + 1 X59 + 1 X120 + 1 X66
  + 1 X88 + 1 X183 + 1 X169 + 1 X134 + 1 X51
  <= 1
 c2:
  + 1 X143 + 1 X128 + 1 X88 + 1 X123 + 1 X115
  <= 1
 c3:
  + 1 X30 + 1 X88 + 1 X132 + 1 X150 + 1 X192 + 1 X105 + 1 X98 + 1 X13
  + 1 X37 + 1 X57 + 1 X46 + 1 X122 + 1 X179 + 1 X193 + 1 X59 + 1 X173
  + 1 X50 + 1 X99 + 1 X115
  <= 1
 c4:
  + 1 X164 + 1 X30 + 1 X82 + 1 X193 + 1 X6 + 1 X76 + 1 X182 + 1 X153
  + 1 X166 + 1 X35 + 1 X179 + 1 X8 + 1 X21 + 1 X100 + 1 X120 + 1 X7
  + 1 X145
  <= 1
 c5:
  + 1 X80 + 1 X59 + 1 X24 + 1 X129 + 1 X10 + 1 X33 + 1 X160 + 1 X26
  + 1 X61 + 1 X110 + 1 X9 + 1 X20 + 1 X67 + 1 X109
  <= 1
 c6:
  + 1 X5 + 1 X67 + 1 X188 + 1 X117 + 1 X166 + 1 X57 + 1 X46 + 1 X109
  + 1 X3 + 1 X128 + 1 X145 + 1 X81 + 1 X112 + 1 X118 + 1 X151 + 1 X74
  + 1 X31 + 1 X56 + 1 X193 + 1 X179
  <= 1
 c7:
  + 1 X42 + 1 X17 + 1 X171
  <= 1
 c8:
  + 1 X148 + 1 X94 + 1 X114 + 1 X12 + 1 X149 + 1 X119 + 1 X107 + 1 X91
  + 1 X37 + 1 X141 + 1 X100 + 1 X174 + 1 X144 + 1 X44 + 1 X186 + 1 X2
  + 1 X101 + 1 X200 + 1 X8
  <= 1
 c9:
  + 1 X32 + 1 X54 + 1 X178 + 1 X185 + 1 X103 + 1 X81 + 1 X192 + 1 X108
  + 1 X44 + 1 X145 + 1 X102 + 1 X197 + 1 X4 + 1 X194
  <= 1
 c10:
  + 1 X176 + 1 X190 + 1 X77 + 1 X195 + 1 X89 + 1 X37 + 1 X133 + 1 X110
  + 1 X158 + 1 X119 + 1 X128 + 1 X19 + 1 X6
  <= 1
 c11:
  + 1 X52 + 1 X120 + 1 X50 + 1 X9 + 1 X97 + 1 X200 + 1 X30 + 1 X125
  + 1 X105 + 1 X137 + 1 X153 + 1 X14 + 1 X19 + 1 X190
  <= 1
 c12:
  + 1 X61 + 1 X39 + 1 X163 + 1 X55 + 1 X15 + 1 X199 + 1 X194
  <= 1
 c13:
  + 1 X6 + 1 X30
  <= 1
 c14:
  + 1 X137 + 1 X118 + 1 X74 + 1 X149 + 1 X144 + 1 X14 + 1 X99 + 1 X81
  <= 1
 c15:
  + 1 X149 + 1 X183 + 1 X170 + 1 X26 + 1 X168 + 1 X187 + 1 X133 + 1 X193
  <= 1
 c16:
  + 1 X198 + 1 X120 + 1 X178 + 1 X192 + 1 X29 + 1 X13 + 1 X163 + 1 X136
  + 1 X33 + 1 X196 + 1 X67 + 1 X140 + 1 X8 + 1 X17 + 1 X63 + 1 X107
  + 1 X194
  <= 1
 c17:
  + 1 X101 + 1 X180 + 1 X59 + 1 X169 + 1 X153 + 1 X125 + 1 X196
  <= 1
 c18:
  + 1 X137 + 1 X143 + 1 X47 + 1 X129 + 1 X136 + 1 X106 + 1 X131 + 1 X195
  + 1 X96 + 1 X177 + 1 X22 + 1 X186 + 1 X151 + 1 X30 + 1 X52 + 1 X111
  + 1 X83 + 1 X155 + 1 X134 + 1 X86
  <= 1
 c19:
  + 1 X152 + 1 X80 + 1 X199 + 1 X158 + 1 X164 + 1 X1 + 1 X81 + 1 X200
  + 1 X35 + 1 X116 + 1 X191
  <= 1
 c20:
  + 1 X69 + 1 X21 + 1 X151 + 1 X13 + 1 X31 + 1 X3 + 1 X54 + 1 X20
  + 1 X11 + 1 X168 + 1 X63 + 1 X5 + 1 X150 + 1 X30 + 1 X81 + 1 X162
  <= 1
 c21:
  + 1 X154 + 1 X12 + 1 X151 + 1 X68 + 1 X94 + 1 X9 + 1 X106 + 1 X18
  + 1 X10 + 1 X111 + 1 X101 + 1 X34 + 1 X167 + 1 X31 + 1 X47 + 1 X6
  <= 1
 c22:
  + 1 X58 + 1 X59 + 1 X161 + 1 X162 + 1 X2 + 1 X145 + 1 X198 + 1 X155
  + 1 X138 + 1 X94 + 1 X147 + 1 X129 + 1 X148 + 1 X136 + 1 X128 + 1 X80
  + 1 X52 + 1 X140 + 1 X153 + 1 X166
  <= 1
 c23:
  + 1 X22 + 1 X21 + 1 X83 + 1 X99 + 1 X4 + 1 X111 + 1 X27 + 1 X7
  + 1 X62 + 1 X184 + 1 X191 + 1 X64
  <= 1
 c24:
  + 1 X145 + 1 X117 + 1 X75 + 1 X104
  <= 1
 c25:
  + 1 X78 + 1 X158 + 1 X184 + 1 X101 + 1 X8 + 1 X125 + 1 X54 + 1 X52
  + 1 X159 + 1 X77 + 1 X196 + 1 X74 + 1 X28 + 1 X160 + 1 X164
  <= 1
 c26:
  + 1 X159 + 1 X170 + 1 X98 + 1 X177 + 1 X2 + 1 X174 + 1 X124 + 1 X168
  + 1 X50 + 1 X51 + 1 X169 + 1 X165 + 1 X64
  <= 1
 c27:
  + 1 X153 + 1 X95 + 1 X31 + 1 X71 + 1 X168 + 1 X26 + 1 X171 + 1 X56
  + 1 X127 + 1 X172
  <= 1
 c28:
  + 1 X183 + 1 X146 + 1 X4 + 1 X63 + 1 X188 + 1 X181 + 1 X95 + 1 X89
  + 1 X25 + 1 X72 + 1 X190 + 1 X136 + 1 X87 + 1 X142 + 1 X115 + 1 X169
  <= 1
 c29:
  + 1 X112 + 1 X99 + 1 X174 + 1 X114 + 1 X28 + 1 X106 + 1 X179 + 1 X78
  + 1 X131 + 1 X11 + 1 X169 + 1 X51 + 1 X129 + 1 X6 + 1 X39 + 1 X52
  <= 1
 c30:
  + 1 X47 + 1 X93 + 1 X92 + 1 X99 + 1 X7 + 1 X139
  <= 1
 c31:
  + 1 X4 + 1 X162 + 1 X122 + 1 X155 + 1 X55 + 1 X62 + 1 X102 + 1 X107
  <= 1
 c32:
  + 1 X103 + 1 X114 + 1 X8 + 1 X69 + 1 X101 + 1 X151 + 1 X116 + 1 X80
  + 1 X38 + 1 X140 + 1 X74 + 1 X30 + 1 X73 + 1 X92 + 1 X177 + 1 X193
  <= 1
 c33:
  + 1 X85 + 1 X76 + 1 X21 + 1 X96 + 1 X48 + 1 X105 + 1 X34 + 1 X31
  + 1 X60 + 1 X87 + 1 X175 + 1 X99 + 1 X100 + 1 X27 + 1 X7 + 1 X159
  + 1 X196 + 1 X74 + 1 X123 + 1 X81
  <= 1
 c34:
  + 1 X91 + 1 X158 + 1 X171 + 1 X15 + 1 X100 + 1 X139 + 1 X6 + 1 X2
  + 1 X170 + 1 X56 + 1 X191 + 1 X74 + 1 X64 + 1 X29
  <= 1
 c35:
  + 1 X112 + 1 X8 + 1 X36 + 1 X91
  <= 1
 c36:
  + 1 X171 + 1 X7 + 1 X198
  <= 1
 c37:
  + 1 X16 + 1 X27 + 1 X44 + 1 X120 + 1 X78 + 1 X25 + 1 X1 + 1 X49
  + 1 X139 + 1 X63 + 1 X106 + 1 X64 + 1 X20 + 1 X148 + 1 X167 + 1 X62
  + 1 X171 + 1 X5 + 1 X83 + 1 X160
  <= 1
 c38:
  + 1 X71 + 1 X47 + 1 X28 + 1 X81 + 1 X11 + 1 X68 + 1 X61 + 1 X51
  + 1 X167 + 1 X123 + 1 X22 + 1 X188
  <= 1
 c39:
  + 1 X37 + 1 X62 + 1 X192 + 1 X131 + 1 X80 + 1 X117 + 1 X94 + 1 X191
  + 1 X40 + 1 X33 + 1 X87 + 1 X45 + 1 X68 + 1 X58 + 1 X188 + 1 X6
  + 1 X48 + 1 X36 + 1 X41
  <= 1
 c40:
  + 1 X120 + 1 X135 + 1 X149 + 1 X90 + 1 X103 + 1 X91 + 1 X107 + 1 X97
  + 1 X96 + 1 X61
  <= 1
 obj1:
  + 100 X1 + 76 X2 + 25 X3 + 66 X4 + 74 X5 + 8 X6 + 16 X7 + 26 X8
  + 48 X9 + 64 X10 + 92 X11 + 84 X12 + 13 X13 + 21 X14 + 78 X15 + 71 X16
  + 17 X17 + 9 X18 + 32 X19 + 17 X20 + 4 X21 + 44 X22 + 11 X23 + 84 X24
  + 33 X25 + 10 X26 + 92 X27 + 55 X28 + 76 X29 + 36 X30 + 31 X31 + 38 X32
  + 49 X33 + 11 X34 + 50 X35 + 17 X36 + 60 X37 + 60 X38 + 7 X39 + 6 X40
  + 36 X41 + 45 X42 + 59 X43 + 18 X44 + 84 X45 + 24 X46 + 16 X47 + 55 X48
  + 95 X49 + 47 X50 + 73 X51 + 100 X52 + 47 X53 + 46 X54 + 90 X55 + 62 X56
  + 98 X57 + 93 X58 + 6 X59 + 60 X60 + 13 X61 + 59 X62 + 73 X63 + 54 X64
  + 98 X65 + 74 X66 + 61 X67 + 73 X68 + 55 X69 + 8 X70 + 54 X71 + 72 X72
  + 1 X73 + 98 X74 + 24 X75 + 35 X76 + 94 X77 + 28 X78 + 84 X79 + 71 X80
  + 14 X81 + 24 X82 + 77 X83 + 76 X84 + 45 X85 + 21 X86 + 60 X87 + 98 X88
  + 24 X89 + 94 X90 + 19 X91 + 53 X92 + 99 X93 + 95 X94 + 30 X95 + 68 X96
  + 52 X97 + 38 X98 + 50 X99 + 13 X100 + 29 X101 + 77 X102 + 14 X103 + 73 X104
  + 68 X105 + 95 X106 + 44 X107 + 70 X108 + 45 X109 + 24 X110 + 33 X111 + 35 X112
  + 73 X113 + 48 X114 + 10 X115 + 83 X116 + 81 X117 + 74 X118 + 24 X119 + 85 X120
  + 34 X121 + 45 X122 + 25 X123 + 97 X124 + 49 X125 + 4 X126 + 26 X127 + 92 X128
  + 60 X129 + 21 X130 + 23 X131 + 5 X132 + 89 X133 + 68 X134 + 67 X135 + 44 X136
  + 83 X137 + 5 X138 + 100 X139 + 22 X140 + 39 X141 + 9 X142 + 79 X143 + 74 X144
  + 84 X145 + 49 X146 + 70 X147 + 28 X148 + 79 X149 + 65 X150 + 18 X151 + 23 X152
  + 49 X153 + 22 X154 + 49 X155 + 79 X156 + 36 X157 + 83 X158 + 44 X159 + 2 X160
  + 92 X161 + 71 X162 + 1 X163 + 73 X164 + 64 X165 + 25 X166 + 6 X167 + 17 X168
  + 54 X169 + 30 X170 + 80 X171 + 51 X172 + 54 X173 + 46 X174 + 30 X175 + 23 X176
  + 40 X177 + 86 X178 + 18 X179 + 61 X180 + 73 X181 + 52 X182 + 80 X183 + 26 X184
  + 20 X185 + 41 X186 + 33 X187 + 63 X188 + 45 X189 + 31 X190 + 5 X191 + 49 X192
  + 47 X193 + 40 X194 + 59 X195 + 35 X196 + 63 X197 + 97 X198 + 92 X199 + 69 X200
  >= 1
 obj2:
  + 2 X1 + 47 X2 + 27 X3 + 61 X4 + 49 X5 + 74 X6 + 33 X7 + 67 X8
  + 8 X9 + 47 X10 + 9 X11 + 71 X12 + 80 X13 + 19 X14 + 80 X15 + 5 X16
  + 30 X17 + 68 X18 + 91 X19 + 8 X20 + 59 X21 + 2 X22 + 30 X23 + 53 X24
  + 52 X25 + 47 X26 + 21 X27 + 50 X28 + 46 X29 + 5 X30 + 18 X31 + 9 X32
  + 89 X33 + 96 X34 + 67 X35 + 1 X36 + 40 X37 + 70 X38 + 11 X39 + 1 X40
  + 95 X41 + 87 X42 + 83 X43 + 48 X44 + 6 X45 + 34 X46 + 70 X47 + 91 X48
  + 42 X49 + 65 X50 + 80 X51 + 22 X52 + 52 X53 + 40 X54 + 88 X55 + 91 X56
  + 2 X57 + 81 X58 + 44 X59 + 96 X60 + 19 X61 + 64 X62 + 51 X63 + 8 X64
  + 10 X65 + 72 X66 + 40 X67 + 37 X68 + 46 X69 + 66 X70 + 69 X71 + 30 X72
  + 50 X73 + 1 X74 + 27 X75 + 86 X76 + 64 X77 + 17 X78 + 99 X79 + 44 X80
  + 51 X81 + 46 X82 + 48 X83 + 10 X84 + 19 X85 + 81 X86 + 28 X87 + 44 X88
  + 93 X89 + 17 X90 + 18 X91 + 94 X92 + 41 X93 + 17 X94 + 22 X95 + 40 X96
  + 98 X97 + 26 X98 + 15 X99 + 14 X100 + 40 X101 + 55 X102 + 82 X103 + 10 X104
  + 5 X105 + 73 X106 + 87 X107 + 12 X108 + 11 X109 + 31 X110 + 72 X111 + 88 X112
  + 67 X113 + 50 X114 + 24 X115 + 99 X116 + 88 X117 + 25 X118 + 34 X119 + 54 X120
  + 88 X121 + 45 X122 + 50 X123 + 56 X124 + 2 X125 + 84 X126 + 70 X127 + 5 X128
  + 74 X129 + 65 X130 + 61 X131 + 71 X132 + 46 X133 + 43 X134 + 41 X135 + 91 X136
  + 52 X137 + 41 X138 + 37 X139 + 2 X140 + 27 X141 + 53 X142 + 31 X143 + 69 X144
  + 66 X145 + 34 X146 + 20 X147 + 82 X148 + 48 X149 + 64 X150 + 75 X151 + 57 X152
  + 66 X153 + 80 X154 + 30 X155 + 42 X156 + 54 X157 + 2 X158 + 78 X159 + 65 X160
  + 51 X161 + 99 X162 + 82 X163 + 45 X164 + 89 X165 + 88 X166 + 70 X167 + 96 X168
  + 58 X169 + 20 X170 + 30 X171 + 22 X172 + 90 X173 + 17 X174 + 68 X175 + 61 X176
  + 35 X177 + 96 X178 + 72 X179 + 94 X180 + 22 X181 + 77 X182 + 81 X183 + 69 X184
  + 38 X185 + 42 X186 + 93 X187 + 88 X188 + 24 X189 + 98 X190 + 5 X191 + 43 X192
  + 64 X193 + 29 X194 + 23 X195 + 33 X196 + 87 X197 + 52 X198 + 98 X199 + 59 X200
  >= 2
 obj3:
  + 49 X1 + 7 X2 + 80 X3 + 60 X4 + 57 X5 + 61 X6 + 62 X7 + 12 X8
  + 38 X9 + 13 X10 + 95 X11 + 62 X12 + 57 X13 + 99 X14 + 39 X15 + 41 X16
  + 15 X17 + 16 X18 + 59 X19 + 61 X20 + 15 X21 + 25 X22 + 31 X23 + 54 X24
  + 43 X25 + 40 X26 + 31 X27 + 77 X28 + 54 X29 + 58 X30 + 20 X31 + 17 X32
  + 28 X33 + 95 X34 + 54 X35 + 30 X36 + 79 X37 + 9 X38 + 81 X39 + 40 X40
  + 45 X41 + 71 X42 + 26 X43 + 79 X44 + 3 X45 + 81 X46 + 82 X47 + 41 X48
  + 3 X49 + 10 X50 + 28 X51 + 75 X52 + 51 X53 + 66 X54 + 15 X55 + 80 X56
  + 53 X57 + 24 X58 + 26 X59 + 48 X60 + 11 X61 + 30 X62 + 99 X63 + 36 X64
  + 44 X65 + 82 X66 + 3 X67 + 72 X68 + 50 X69 + 80 X70 + 50 X71 + 29 X72
  + 33 X73 + 66 X74 + 51 X75 + 91 X76 + 7 X77 + 9 X78 + 36 X79 + 35 X80
  + 53 X81 + 27 X82 + 53 X83 + 88 X84 + 82 X85 + 39 X86 + 92 X87 + 14 X88
  + 92 X89 + 84 X90 + 19 X91 + 22 X92 + 83 X93 + 43 X94 + 82 X95 + 27 X96
  + 88 X97 + 92 X98 + 97 X99 + 52 X100 + 56 X101 + 85 X102 + 35 X103 + 32 X104
  + 16 X105 + 61 X106 + 37 X107 + 42 X108 + 91 X109 + 48 X110 + 54 X111 + 13 X112
  + 4 X113 + 93 X114 + 65 X115 + 26 X116 + 30 X117 + 80 X118 + 1 X119 + 64 X120
  + 79 X121 + 78 X122 + 13 X123 + 99 X124 + 54 X125 + 43 X126 + 62 X127 + 89 X128
  + 50 X129 + 65 X130 + 22 X131 + 91 X132 + 24 X133 + 89 X134 + 51 X135 + 26 X136
  + 58 X137 + 63 X138 + 8 X139 + 50 X140 + 55 X141 + 75 X142 + 41 X143 + 12 X144
  + 17 X145 + 79 X146 + 19 X147 + 6 X148 + 100 X149 + 11 X150 + 55 X151 + 23 X152
  + 10 X153 + 24 X154 + 18 X155 + 32 X156 + 65 X157 + 59 X158 + 97 X159 + 37 X160
  + 40 X161 + 1 X162 + 1 X163 + 38 X164 + 82 X165 + 74 X166 + 34 X167 + 92 X168
  + 52 X169 + 60 X170 + 40 X171 + 42 X172 + 39 X173 + 100 X174 + 88 X175 + 54 X176
  + 80 X177 + 52 X178 + 43 X179 + 30 X180 + 27 X181 + 82 X182 + 30 X183 + 73 X184
  + 28 X185 + 59 X186 + 86 X187 + 16 X188 + 34 X189 + 61 X190 + 18 X191 + 27 X192
  + 100 X193 + 59 X194 + 11 X195 + 72 X196 + 82 X197 + 26 X198 + 27 X199 + 12 X200
  >= 3
 obj4:
  + 22 X1 + 51 X2 + 37 X3 + 44 X4 + 80 X5 + 97 X6 + 70 X7 + 37 X8
  + 14 X9 + 18 X10 + 80 X11 + 22 X12 + 3 X13 + 19 X14 + 41 X15 + 6 X16
  + 26 X17 + 90 X18 + 41 X19 + 10 X20 + 97 X21 + 8 X22 + 96 X23 + 9 X24
  + 33 X25 + 72 X26 + 38 X27 + 32 X28 + 63 X29 + 11 X30 + 87 X31 + 81 X32
  + 35 X33 + 28 X34 + 84 X35 + 84 X36 + 7 X37 + 74 X38 + 91 X39 + 4 X40
  + 84 X41 + 22 X42 + 16 X43 + 93 X44 + 97 X45 + 18 X46 + 34 X47 + 36 X48
  + 2 X49 + 69 X50 + 94 X51 + 22 X52 + 17 X53 + 55 X54 + 11 X55 + 90 X56
  + 68 X57 + 98 X58 + 61 X59 + 53 X60 + 70 X61 + 95 X62 + 41 X63 + 65 X64
  + 18 X65 + 14 X66 + 49 X67 + 27 X68 + 61 X69 + 77 X70 + 27 X71 + 39 X72
  + 17 X73 + 17 X74 + 61 X75 + 22 X76 + 33 X77 + 19 X78 + 54 X79 + 8 X80
  + 75 X81 + 50 X82 + 16 X83 + 7 X84 + 27 X85 + 33 X86 + 67 X87 + 59 X88
  + 74 X89 + 8 X90 + 37 X91 + 55 X92 + 99 X93 + 70 X94 + 28 X95 + 14 X96
  + 98 X97 + 26 X98 + 5 X99 + 14 X100 + 91 X101 + 51 X102 + 38 X103 + 45 X104
  + 98 X105 + 8 X106 + 46 X107 + 8 X108 + 21 X109 + 86 X110 + 81 X111 + 43 X112
  + 3 X113 + 93 X114 + 19 X115 + 9 X116 + 4 X117 + 4 X118 + 20 X119 + 6 X120
  + 3 X121 + 90 X122 + 88 X123 + 6 X124 + 85 X125 + 98 X126 + 79 X127 + 2 X128
  + 20 X129 + 32 X130 + 19 X131 + 31 X132 + 89 X133 + 48 X134 + 94 X135 + 95 X136
  + 85 X137 + 100 X138 + 63 X139 + 90 X140 + 27 X141 + 95 X142 + 58 X143 + 69 X144
  + 98 X145 + 51 X146 + 74 X147 + 68 X148 + 97 X149 + 85 X150 + 92 X151 + 53 X152
  + 22 X153 + 91 X154 + 72 X155 + 67 X156 + 14 X157 + 36 X158 + 94 X159 + 15 X160
  + 74 X161 + 36 X162 + 21 X163 + 85 X164 + 42 X165 + 100 X166 + 10 X167 + 79 X168
  + 33 X169 + 24 X170 + 85 X171 + 73 X172 + 80 X173 + 46 X174 + 99 X175 + 10 X176
  + 31 X177 + 22 X178 + 100 X179 + 12 X180 + 40 X181 + 19 X182 + 76 X183 + 74 X184
  + 10 X185 + 10 X186 + 42 X187 + 30 X188 + 96 X189 + 58 X190 + 3 X191 + 58 X192
  + 21 X193 + 32 X194 + 10 X195 + 51 X196 + 43 X197 + 55 X198 + 2 X199 + 79 X200
  >= 4
Binary
 X1
 X2
 X3
 X4
 X5
 X6
 X7
 X8
 X9
 X10
 X11
 X12
 X13
 X14
 X15
 X16
 X17
 X18
 X19
 X20
 X21
 X22
 X23
 X24
 X25
 X26
 X27
 X28
 X29
 X30
 X31
 X32
 X33
 X34
 X35
 X36
 X37
 X38
 X39
 X40
 X41
 X42
 X43
 X44
 X45
 X46
 X47
 X48
 X49
 X50
 X51
 X52
 X53
 X54
 X55
 X56
 X57
 X58
 X59
 X60
 X61
 X62
 X63
 X64
 X65
 X66
 X67
 X68
 X69
 X70
 X71
 X72
 X73
 X74
 X75
 X76
 X77
 X78
 X79
 X80
 X81
 X82
 X83
 X84
 X85
 X86
 X87
 X88
 X89
 X90
 X91
 X92
 X93
 X94
 X95
 X96
 X97
 X98
 X99
 X100
 X101
 X102
 X103
 X104
 X105
 X106
 X107
 X108
 X109
 X110
 X111
 X112
 X113
 X114
 X115
 X116
 X117
 X118
 X119
 X120
 X121
 X122
 X123
 X124
 X125
 X126
 X127
 X128
 X129
 X130
 X131
 X132
 X133
 X134
 X135
 X136
 X137
 X138
 X139
 X140
 X141
 X142
 X143
 X144
 X145
 X146
 X147
 X148
 X149
 X150
 X151
 X152
 X153
 X154
 X155
 X156
 X157
 X158
 X159
 X160
 X161
 X162
 X163
 X164
 X165
 X166
 X167
 X168
 X169
 X170
 X171
 X172
 X173
 X174
 X175
 X176
 X177
 X178
 X179
 X180
 X181
 X182
 X183
 X184
 X185
 X186
 X187
 X188
 X189
 X190
 X191
 X192
 X193
 X194
 X195
 X196
 X197
 X198
 X199
 X200
End
